CPXPARAM_TimeLimit                               3600
CPXPARAM_Read_DataCheck                          1
CPXPARAM_MIP_Limits_Solutions                    1
Tried aggregator 1 time.
Reduced MIP has 8000 rows, 4201 columns, and 23600 nonzeros.
Reduced MIP has 3800 binaries, 0 generals, 0 SOSs, and 0 indicators.
Presolve time = 0.00 sec. (7.79 ticks)
Found incumbent of value 16161.000000 after 0.03 sec. (54.66 ticks)

Root node processing (before b&c):
  Real time             =    0.03 sec. (54.96 ticks)
Parallel b&c, 8 threads:
  Real time             =    0.00 sec. (0.00 ticks)
  Sync time (average)   =    0.00 sec.
  Wait time (average)   =    0.00 sec.
                          ------------
Total (root+branch&cut) =    0.03 sec. (54.96 ticks)
